1   23  71
2   45  18
3   62  39
4   21  44
5   19  60
6   38  23
7   50  65
8   11  27
9   41  31
10  64  55
11  15  49
12  58  66
13  46  24
14  29  33
15  42  51
16  53  26
17  16  46
18  61  21
19  32  58
20  9   36
21  36  11
22  49  72
23  25  48
24  59  22
25  17  63
26  31  17
27  55  69
28  12  53
29  35  45
30  28  67